WARNING: for repeatability, setting FPU to use double precision
============================[ Problem Statistics ]=============================
|                                                                             |
|  Number of variables:            50                                         |
|  Number of clauses:             218                                         |
|  Parse time:                   0.00 s                                       |
|                                                                             |
============================[ Search Statistics ]==============================
| Conflicts |          ORIGINAL         |          LEARNT          | Progress |
|           |    Vars  Clauses Literals |    Limit  Clauses Lit/Cl |          |
===============================================================================
===============================================================================
restarts              : 1
conflicts             : 54             (325301 /sec)
decisions             : 58             (0.00 % random) (349398 /sec)
propagations          : 793            (4777108 /sec)
conflict literals     : 207            (6.76 % deleted)
Memory used           : 20.00 MB
CPU time              : 0.000166 s

UNSATISFIABLE
